n_res = 4;
rc = [ 0, 0, 0, 0 ];
n_tasks = 30;
d = [ 9, 3, 3, 8, 3, 9, 1, 8, 6, 5, 10, 4, 9, 2, 4, 9, 9, 1, 4, 6, 7, 4, 2, 6, 6, 6, 5, 3, 5, 8 ];
rr = [| 0, 0, 0, 0, 0, 0, 0, 0, 0, 0, 0, 0, 0, 0, 0, 0, 0, 0, 0, 0, 0, 0, 0, 0, 0, 0, 0, 0, 0, 0
      | 0, 0, 0, 0, 0, 0, 0, 0, 0, 0, 0, 0, 0, 0, 0, 0, 0, 0, 0, 0, 0, 0, 0, 0, 0, 0, 0, 0, 0, 0
      | 0, 0, 0, 0, 0, 0, 0, 0, 0, 0, 0, 0, 0, 0, 0, 0, 0, 0, 0, 0, 0, 0, 0, 0, 0, 0, 0, 0, 0, 0
      | 0, 0, 0, 0, 0, 0, 0, 0, 0, 0, 0, 0, 0, 0, 0, 0, 0, 0, 0, 0, 0, 0, 0, 0, 0, 0, 0, 0, 0, 0 |];
suc = [ { 4, 6, 7 },
       { 13, 16, 17 },
       { 14, 17, 27 },
       { 5, 9, 26 },
       { 16, 18, 24 },
       { 17, 26, 29 },
       { 8, 12, 13 },
       { 10, 11, 20 },
       { 10, 21, 27 },
       { 19, 23 },
       { 15, 16, 23 },
       { 14, 15, 23 },
       { 14, 15, 18 },
       { 25, 28 },
       { 19, 26, 29 },
       { 21, 22, 29 },
       { 18, 20, 24 },
       { 19 },
       { 22, 25 },
       { 21, 22 },
       { 25, 28 },
       { 30 },
       { 24 },
       { 28 },
       { 30 },
       { 27 },
       { 30 },
       {  },
       {  },
       {  } ];
